
Gurobi 9.5.1 (linux64) logging started Tue 16 Aug 2022 08:43:50 PM MST

Set parameter LogFile to value "/home/local/ASUAD/kmajd1/NNRepLayer_v2/demos/walking_example/dynamic_constraint/repair_net/logs/opt_log_multi_23.log"
Gurobi Optimizer version 9.5.1 build v9.5.1rc2 (linux64)
Thread count: 48 physical cores, 96 logical processors, using up to 48 threads
Optimize a model with 15477 rows, 9832 columns and 144341 nonzeros
Model fingerprint: 0x8128900e
Model has 135 quadratic objective terms
Variable types: 5512 continuous, 4320 integer (4320 binary)
Coefficient statistics:
  Matrix range     [5e-05, 7e+01]
  Objective range  [2e-02, 3e+00]
  QObjective range [1e-01, 1e-01]
  Bounds range     [2e-03, 3e+02]
  RHS range        [5e-04, 7e+01]

Concurrent MIP optimizer: 3 concurrent instances (16 threads per instance)

Presolve removed 462 rows and 96 columns
Presolve time: 0.25s
Presolved: 15015 rows, 9736 columns, 143687 nonzeros
Presolved model has 135 quadratic objective terms
Variable types: 5416 continuous, 4320 integer (4320 binary)
Root relaxation presolve removed 4320 rows and 4320 columns
Root relaxation presolved: 10695 rows, 5416 columns, 130727 nonzeros
Root relaxation presolved model has 135 quadratic objective terms


Root relaxation: objective 2.031306e+01, 5649 iterations, 0.47 seconds (0.91 work units)

    Nodes    |    Current Node    |     Objective Bounds      |     Work
 Expl Unexpl |  Obj  Depth IntInf | Incumbent    BestBd   Gap | It/Node Time

     0     0      -    -    -              -   20.31306      -     -    0s
     0     0      -    -    -              -   20.31306      -     -    2s
     0     2      -    -    -              -   20.31306      -     -    8s
   195   222      -    -    -              -   20.31306      -     -   10s
  3188  3335      -    -    -              -   20.31306      -     -   15s
  6561  6749      -    -    -              -   20.31306      -     -   20s
  7999  8147      -    -    -              -   20.31306      -     -   25s
  9069  9294      -    -    -              -   20.31306      -     -   30s
 10252 10252      -    -    -              -   20.31306      -     -   37s

Instance 2 was solved

Explored 10320 nodes (1229049 simplex iterations) in 52.49 seconds (70.37 work units)
Thread count was 16 (of 96 available processors)

Solution count 2: 30.4138 55.3054 

Optimal solution found (tolerance 3.50e-01)
Warning: max bound violation (3.7773e-06) exceeds tolerance
Best objective 3.041379318989e+01, best bound 2.031305990020e+01, gap 33.2110%
